Solver command line: ['C:\\Program Files\\IBM\\ILOG\\CPLEX_Studio2211\\cplex\\bin\\x64_win64\\cplex.exe']


Welcome to IBM(R) ILOG(R) CPLEX(R) Interactive Optimizer 22.1.1.0
  with Simplex, Mixed Integer & Barrier Optimizers
5725-A06 5725-A29 5724-Y48 5724-Y49 5724-Y54 5724-Y55 5655-Y21
Copyright IBM Corp. 1988, 2022.  All Rights Reserved.

Type 'help' for a list of available commands.
Type 'help' followed by a command name for more
information on commands.

CPLEX> Logfile 'cplex.log' closed.
Logfile 'C:\Users\wangy\Documents\GitHub\re_optimization\result_site_specific\tmplu6zkdwt.cplex.log' open.
CPLEX> Problem 'C:\Users\wangy\Documents\GitHub\re_optimization\result_site_specific\tmp9n8dooie.pyomo.lp' read.
Read time = 0.30 sec. (9.13 ticks)
CPLEX> Problem name         : C:\Users\wangy\Documents\GitHub\re_optimization\result_site_specific\tmp9n8dooie.pyomo.lp
Objective sense      : Minimize
Variables            :   65769  [Nneg: 35068,  Free: 8792,  Binary: 9,
                                 Other: 21900]
Objective nonzeros   :      17
Linear constraints   :   87665  [Less: 46741,  Greater: 5,  Equal: 40919]
  Nonzeros           :  225025
  RHS nonzeros       :    3811

Variables            : Min LB: 0.000000         Max UB: 1.000000       
Objective nonzeros   : Min   : 1.000000         Max   : 1.000000       
Linear constraints   :
  Nonzeros           : Min   : 0.002653897      Max   : 100000.0       
  RHS nonzeros       : Min   : 0.1100000        Max   : 100000.0       
CPLEX> Version identifier: 22.1.1.0 | 2022-11-27 | 9160aff4d
Tried aggregator 3 times.
MIP Presolve eliminated 52546 rows and 32104 columns.
Aggregator did 10192 substitutions.
Reduced MIP has 24927 rows, 23473 columns, and 74638 nonzeros.
Reduced MIP has 5 binaries, 0 generals, 0 SOSs, and 0 indicators.
Presolve time = 0.20 sec. (224.80 ticks)
Found incumbent of value 243121.312958 after 0.30 sec. (329.01 ticks)
Probing time = 0.00 sec. (1.34 ticks)
Tried aggregator 1 time.
Detecting symmetries...
Reduced MIP has 24927 rows, 23473 columns, and 74638 nonzeros.
Reduced MIP has 5 binaries, 0 generals, 0 SOSs, and 0 indicators.
Presolve time = 0.05 sec. (47.88 ticks)
Probing time = 0.00 sec. (1.23 ticks)
MIP emphasis: balance optimality and feasibility.
MIP search method: dynamic search.
Parallel mode: deterministic, using up to 16 threads.
Root relaxation solution time = 1.39 sec. (883.93 ticks)

        Nodes                                         Cuts/
   Node  Left     Objective  IInf  Best Integer    Best Bound    ItCnt     Gap

*     0+    0                       243121.3130    -3783.5367           101.56%
      0     0     4830.7982     1   243121.3130     4830.7982       54   98.01%
*     0+    0                         5043.9750     4830.7982             4.23%
      0     0        cutoff           5043.9750                    598    0.00%
Elapsed time = 2.08 sec. (1711.54 ticks, tree = 0.01 MB, solutions = 2)

Root node processing (before b&c):
  Real time             =    2.09 sec. (1714.30 ticks)
Parallel b&c, 16 threads:
  Real time             =    0.00 sec. (0.00 ticks)
  Sync time (average)   =    0.00 sec.
  Wait time (average)   =    0.00 sec.
                          ------------
Total (root+branch&cut) =    2.09 sec. (1714.30 ticks)

Solution pool: 2 solutions saved.

MIP - Integer optimal solution:  Objective =  5.0439750363e+03
Solution time =    2.11 sec.  Iterations = 598  Nodes = 0
Deterministic time = 1714.49 ticks  (812.94 ticks/sec)

CPLEX> Incumbent solution written to file 'C:\Users\wangy\Documents\GitHub\re_optimization\result_site_specific\tmp0h4mnfze.cplex.sol'.
CPLEX> 
